&CONTROL 
   calculation = 'scf'
   restart_mode = 'from_scratch' 
   prefix = 'BeNvac' 
   tstress = .true. 
   tprnfor = .true. 
   pseudo_dir = './PSEUDO' 
   outdir = './tmp' 
&end 
&SYSTEM 
   ibrav = 1 
   nat = 7 
   ntyp = 2 
   celldm(1) = 7.04404186152 
   ecutwfc = 100 
   occupations = 'tetrahedra' 
&end 
&ELECTRONS 
   conv_thr =  1e-04 
   mixing_beta = 0.4 
&end 
ATOMIC_SPECIES 
   Be   22.9897    Be_ONCV_PBE_sr.upf 
   N   35.453    N_ONCV_PBE_sr.upf 
ATOMIC_POSITIONS crystal 
   Be    0.5    0.5    0.0    	
   Be    0.5    0.0    0.5   
   Be    0.0    0.5    0.5    
   N    0.0    0.0    0.5
   N    0.5    0.5    0.5   
   N    0.5    0.0    0.0    
   N    0.0    0.5    0.0    
K_POINTS automatic 
10  10  10    0  0  0  
