&dos
prefix = 'allu',
outdir = './tmp',
emin = -5
emax = 20
DeltaE = 0.01
&end
