&CONTROL
  calculation = 'scf'
  restart_mode = 'from_scratch'
  outdir = './tmp'
  pseudo_dir = './PSEUDO'
  prefix = 'MgB2'
  tstress = .true.
  tprnfor = .true.
/
&SYSTEM
  ibrav = 4
  celldm(1) = 5.817144168
  celldm(3) = 1.14312758
  nat = 3
  ntyp = 2
  ecutwfc = 90
  occupations = 'smearing', smearing='gauss', degauss=0.04,
/
&ELECTRONS
  conv_thr = 1.0e-6
/
ATOMIC_SPECIES
  Mg  24.305  Mg_ONCV_PBE_sr.upf
  B   10.811  B_ONCV_PBE_sr.upf
ATOMIC_POSITIONS crystal
  Mg   0.000000  0.000000  0.000000
  B    0.333333  0.666666  0.500000
  B    0.666666  0.333333  0.500000
K_POINTS automatic
  6 6 6 0 0 0
