&CONTROL
  calculation = 'vc-relax'
  restart_mode = 'from_scratch'
  outdir = './tmp'
  pseudo_dir = './PSEUDO'
  prefix = 'SiNi-relax'
  tstress = .true.
  tprnfor = .true.
/
&SYSTEM
   ibrav = 0
   nat = 2 
   ntyp = 2 
   celldm(1) = 5.37330365074
   ecutwfc = 110 
   occupations = 'smearing', smearing='mp', degauss=0.04,
/
&ELECTRONS
  conv_thr = 1.0e-6
/
&IONS
ion_dynamics = 'bfgs'
/
&CELL
cell_dofree = 'z'
cell_dynamics='bfgs'
press=0.0
/
ATOMIC_SPECIES 
   Si  28.0855    Si.upf 
   Ni  58.6934    Ni.upf 
ATOMIC_POSITIONS crystal 
   Si    0.0    0.0    0.0    
   Ni    0.5    0.5    0.5
CELL_PARAMETERS (alat)
0.9250000000 0.0 0.0
0.0 0.925000000000 0.0
0.0 0.0 1.144080941
K_POINTS automatic 
7  7  7    0  0  0  

