&CONTROL
   calculation = 'scf'
   restart_mode = 'from_scratch'
   prefix = 'CdTe'
   tstress = .true.
   tprnfor = .true.
   pseudo_dir = './PSEUDO'
   outdir = './tmp'
&end
&SYSTEM
   ibrav = 2
   nat = 2
   ntyp = 2
   celldm(1) = 10 
   ecutwfc = 20 
   occupations = 'tetrahedra_opt'
&end
&ELECTRONS
   conv_thr =  1e-05
   mixing_beta = 0.7
&end
ATOMIC_SPECIES
   Cd   112.4    Cd_ONCV_PBE-1.2.upf
   Te   127.6     Te_ONCV_PBE-1.2.upf
ATOMIC_POSITIONS crystal
   Cd    0.      0.      0.
   Te    0.25    0.25    0.25
K_POINTS automatic
8 8 8  0  0  0


