&dos
prefix = 'CdTe',
outdir = './tmp',
emin = -30
emax = 20
DeltaE = 0.01
&end
