 &BANDS                                                                
 prefix = 'CdTe',                                                                  
 outdir = './tmp/',                                                                     
 filband = 'CdTe.bands.dat',                                                
 lsym = .true.                                                                          
 &end 
