&CONTROL
   calculation = 'bands'
   restart_mode = 'from_scratch'
   prefix = 'CdTe'
   tstress = .true.
   tprnfor = .true.
   pseudo_dir = './PSEUDO'
   outdir = './tmp'
&end
&SYSTEM
   ibrav = 2
   nat = 2
   ntyp = 2
   celldm(1) = 12.5 
   ecutwfc = 70, nbnd=24
   occupations = 'fixed'
&end
&ELECTRONS
   conv_thr =  1e-05
   mixing_beta = 0.7
&end
ATOMIC_SPECIES
   Cd   112.4    Cd_ONCV_PBE-1.2.upf
   Te   127.6     Te_ONCV_PBE-1.2.upf
ATOMIC_POSITIONS crystal
   Cd    0.      0.      0.
   Te    0.25    0.25    0.25
K_POINTS (crystal_b)
6
0.5  0.25  0.75 40  ! W
0.5  0.5   0.5  40  ! L
0. 	 0.    0. 	40  ! Gamma
0.5  0.    0.5  40	! X
0.5  0.25  0.75 40 	! W
0.5  0.5   0.5  40  ! L

