&CONTROL
   calculation = 'relax'
   restart_mode = 'from_scratch'
   prefix = 'CdTe'
   tstress = .true.
   tprnfor = .true.
   pseudo_dir = './PSEUDO'
   outdir = './tmp'
&end
&SYSTEM
   ibrav = 2
   nat = 2
   ntyp = 2
   celldm(1) = 12.5 
   ecutwfc = 70 
   occupations = 'smearing', smearing='gauss', degauss=0.04
&end
&ELECTRONS
   conv_thr =  1e-05
   mixing_beta = 0.7
&end
&IONS
ion_dynamics = 'bfgs'
/
ATOMIC_SPECIES
   Cd   112.4    Cd_ONCV_PBE-1.2.upf
   Te   127.6     Te_ONCV_PBE-1.2.upf
ATOMIC_POSITIONS crystal
   Cd    0.05    0.05    0.05
   Te    0.25    0.25    0.25
K_POINTS automatic
7 7 7  0  0  0


