&CONTROL
  calculation = 'relax'
  restart_mode = 'from_scratch'
  outdir = './tmp'
  pseudo_dir = './PSEUDO'
  prefix = 'force_relax'
  tstress = .true.
  tprnfor = .true.
/
&SYSTEM
  ibrav = 2
  celldm(1) = 10.26
  nat = 2
  ntyp = 1
  ecutwfc = 40
  occupations = 'smearing', smearing='gauss', degauss=0.04
/
&ELECTRONS
  conv_thr = 1.0e-6
/
&IONS
ion_dynamics = 'bfgs'
/
ATOMIC_SPECIES
  Si 28.76  Si.LDA.upf
ATOMIC_POSITIONS 
  Si  0.10   0.00   0.00
  Si  0.25   0.25   0.25
K_POINTS automatic
  4 4 4 0 0 0
