&CONTROL 
   calculation = 'bands'
   restart_mode = 'from_scratch' 
   prefix = 'BeN' 
   tstress = .true. 
   tprnfor = .true. 
   pseudo_dir = './PSEUDO' 
   outdir = './tmp' 
&end 
&SYSTEM 
   ibrav = 2 
   nat = 2 
   ntyp = 2 
   celldm(1) = 7.04404186152 
   ecutwfc = 100, nbnd=10 
   occupations = 'fixed'
&end 
&ELECTRONS 
   conv_thr =  1e-06 
   mixing_beta = 0.7 
&end 
ATOMIC_SPECIES 
   Be  9.012182    Be_ONCV_PBE_sr.upf 
   N   14.0067    N_ONCV_PBE_sr.upf 
ATOMIC_POSITIONS crystal 
   Be    0.0    0.0    0.0    
   N    0.5    0.5    0.5    
 K_POINTS (crystal_b)
5
0.00  0.00  0.00   40
0.50  0.50  0.00   40
0.75  0.50  0.25   40
0.50  0.00  0.00   40
0.00  0.00  0.00   40
