&INPUTPP
prefix='Si_hex4'
plot_num=0
outdir='./tmp'
filplot='./charge_density/Si_hex4.rho.out'
&end

&PLOT
nfile=1
weight(1)=1.0
iflag=3
output_format=3
fileout='./charge_density/Si_hex4.rho.xsf',
nx=32,ny=32,nz=32
&end
