&CONTROL
  calculation = 'scf'
  restart_mode = 'from_scratch'
  outdir = './tmp'
  pseudo_dir = './PSEUDO'
  prefix = 'si.cd'
  tstress = .true.
  tprnfor = .true.
/
&SYSTEM
  ibrav = 2
  celldm(1) = 10.3404050887   
  nat = 2
  ntyp = 1
  ecutwfc = 80
  occupations = 'fixed'
/
&ELECTRONS
  conv_thr = 1.0e-6
/
ATOMIC_SPECIES
  Si  28.0855  Si_ONCV_PBE_sr.upf
ATOMIC_POSITIONS crystal
  Si  0.00   0.00   0.00
  Si  0.25   0.25   0.25
K_POINTS automatic
 10 10 10 0 0 0
