&CONTROL
  calculation = 'vc-relax'
  restart_mode = 'from_scratch'
  outdir = './tmp'
  pseudo_dir = './PSEUDO'
  prefix = 'BeN-relax'
  tstress = .true.
  tprnfor = .true.
/
&SYSTEM
  ibrav = 2
  celldm(1) = 7.01860032754  
  nat = 2
  ntyp = 2
  ecutwfc = 100
  occupations = occupations = 'smearing', smearing='m-v', degauss=0.02, 
/
&ELECTRONS
  conv_thr = 1.0e-6
/
&IONS
ion_dynamics = 'bfgs',trust_radius_ini = 0.1 
/
&CELL
cell_dynamics='bfgs'
press=0.0
/
ATOMIC_SPECIES
  Be  9.012182  Be_ONCV_PBE_sr.upf
  N   14.0067   N_ONCV_PBE_sr.upf
ATOMIC_POSITIONS crystal
  Be   0.00   0.00   0.00
  N    0.5    0.5    0.5
K_POINTS automatic
10 10 10  0 0 0
