&CONTROL
  calculation = 'scf'
  restart_mode = 'from_scratch'
  outdir = './tmp'
  pseudo_dir = './PSEUDO'
  prefix = 'MgB2'
  tstress = .true.
  tprnfor = .true.
/
&SYSTEM
  ibrav = 4
  celldm(1) = 5.82603759
  celldm(3) = 1.14206941291
  nat = 3
  ntyp = 2
  ecutwfc = 120
  occupations = 'smearing', smearing='gauss', degauss=0.04,
/
&ELECTRONS
  conv_thr = 1.0e-6
/
ATOMIC_SPECIES
  Mg  24.305  Mg_ONCV_PBE_sr.upf
  B   10.811  B_ONCV_PBE_sr.upf
ATOMIC_POSITIONS crystal
  Mg   0.0000000000  0.0000000000  0.0000000000
  B    0.3333333333  0.6666666666  0.5000000000
  B    0.6666666666  0.3333333333  0.5000000000
K_POINTS automatic
  8 8 8 0 0 0
