&CONTROL 
   calculation = 'scf'
   restart_mode = 'from_scratch' 
   prefix = '${atoms}' ! BeN 
   tstress = .true. 
   tprnfor = .true. 
   pseudo_dir = './PSEUDO' 
   outdir = './tmp' 
&end 
&SYSTEM 
   ibrav = 2 
   nat = 2 
   ntyp = 2 
   celldm(1) = 7.04404186152 
   ecutwfc = $ECUT !90 
   occupations = 'tetrahedra' 
&end 
&ELECTRONS 
   conv_thr =  1e-06 
   mixing_beta = 0.7 
&end 
ATOMIC_SPECIES 
   Be   22.9897    Be_ONCV_PBE_sr.upf 
   N   35.453    N_ONCV_PBE_sr.upf 
ATOMIC_POSITIONS crystal 
   Be    0.0    0.0    0.0    
   N    0.5    0.5    0.5    
K_POINTS automatic 
${ks}  ${ks}  ${ks}    0  0  0  
