&INPUTPP
prefix='${atoms}${ks}'
plot_num=0
outdir='./tmp'
filplot='./charge_density/${atoms}${ks}.rho.out'
&end

&PLOT
nfile=1
weight(1)=1.0
iflag=3
output_format=3
fileout='./charge_density/${atoms}${ks}.rho.xsf',
nx=32,ny=32,nz=32
&end
