&BANDS
prefix = '${prefix}',
outdir = './tmp/',
filband = '${prefix}.bands.dat',
lsym = .true.
&end
