&CONTROL
  calculation = 'scf'
  restart_mode = 'from_scratch'
  outdir = './tmp'
  pseudo_dir = './PSEUDO'
  prefix = 'Si_hex${ks}'
  tstress = .true.
  tprnfor = .true.
/
&SYSTEM
  ibrav = 4 
  celldm(1) = 7.237612910540837
  celldm(3) = 1.65274151436  
  nat = 4 
  ntyp = 1
  ecutwfc = $ECUT
  occupations = 'fixed'
/
&ELECTRONS
  conv_thr = 1.0e-6
/
ATOMIC_SPECIES
  Si  28.08  Si_ONCV_PBE_sr.upf
ATOMIC_POSITIONS crystal
  Si  0.3333333333  0.6666666667  0.0630100000
  Si  0.6666666667  0.3333333333  0.5630100000
  Si  0.6666666667  0.3333333333  -0.0630100000
  Si  0.3333333333  0.6666666667  0.4369900000
K_POINTS automatic
  $ks $ks $ks 0 0 0
