&CONTROL
   calculation = 'bands'
   restart_mode = 'from_scratch'
   outdir = './tmp'
   pseudo_dir = './PSEUDO'
   prefix = '${prefix}'
   tstress = .true.
   tprnfor = .true.
/
&SYSTEM
   ibrav = 2
   celldm(1) = 11.015
   nat = 2
   ntyp = 2
   ecutwfc = $ECUT, nbnd=12
   occupations = 'fixed'
/
&ELECTRONS
   conv_thr = 1.0e-6
/
ATOMIC_SPECIES
  Be  9.012182  Be_ONCV_PBE_sr.upf 
  N   14.0067   N_ONCV_PBE_sr.upf 
ATOMIC_POSITIONS crystal
   Be   0.00   0.00   0.00
   N    0.5    0.5    0.5
K_POINTS (crystal_b)
5
0.00 0.00 0.00 40 ! Gamma
0.50 0.50 0.00 40 ! X
0.75 0.50 0.25 40 ! W
0.50 0.00 0.00 40 ! L
0.00 0.00 0.00  0 ! Gamma
