&CONTROL
   calculation = 'scf'
   restart_mode = 'from_scratch'
   outdir = './tmp'
   pseudo_dir = './PSEUDO'
   prefix = '${atoms}'
   tstress = .true.
   tprnfor = .true.
/
&SYSTEM
   ibrav = 2
   celldm(1) = 11.015
   nat = 2
   ntyp = 2
   ecutwfc = $ECUT
   occupations = occupations = 'smearing', smearing='gauss', degauss=0.02
/
&ELECTRONS
   conv_thr = 1.0e-6
/
ATOMIC_SPECIES
   Na  22.99    Na_ONCV_PBE_sr.upf
   S   32.065   S_ONCV_PBE_sr.upf
ATOMIC_POSITIONS crystal
   Na   0.00   0.00   0.00
   S    0.5    0.5    0.5
K_POINTS automatic
   $ks $ks $ks 0 0 0
