&CONTROL
  calculation = 'scf'
  restart_mode = 'from_scratch'
  outdir = './tmp'
  pseudo_dir = './PSEUDO'
  prefix = 'neon${ks}'
  tstress = .true.
  tprnfor = .true.
/
&SYSTEM
  ibrav = 2
  celldm(1) = 8.43
  nat = 1
  ntyp = 1
  ecutwfc = $ECUT
  occupations = 'fixed'
/
&ELECTRONS
  conv_thr = 1.0e-6
/
ATOMIC_SPECIES
  Ne  20.18  Ne.LDA.upf
ATOMIC_POSITIONS crystal
  Ne   0.00   0.00   0.00
K_POINTS automatic
  ${ks} ${ks} ${ks} 0 0 0
