&CONTROL 
   calculation = 'bands'
   restart_mode = 'from_scratch' 
   prefix = 'NaS' 
   tstress = .true. 
   tprnfor = .true. 
   pseudo_dir = './PSEUDO' 
   outdir = './tmp' 
&end 
&SYSTEM 
   ibrav = 2 
   nat = 2 
   ntyp = 2 
   celldm(1) = 11.015
   ecutwfc = 90, nbnd=15
   occupations = 'fixed'
&end 
&ELECTRONS 
   conv_thr =  1e-06 
   mixing_beta = 0.7 
&end 
ATOMIC_SPECIES 
   Na  22.99    Na_ONCV_PBE_sr.upf
   S   32.065   S_ONCV_PBE_sr.upf
ATOMIC_POSITIONS crystal 
   Na    0.0    0.0    0.0    
   S    0.5    0.5    0.5    
 K_POINTS (crystal_b)
5
0.00  0.00  0.00   40
0.50  0.50  0.00   40
0.75  0.50  0.25   40
0.50  0.00  0.00   40
0.00  0.00  0.00   40
