&CONTROL
  calculation = 'vc-relax'
  restart_mode = 'from_scratch'
  outdir = './tmp'
  pseudo_dir = './PSEUDO'
  prefix = 'si.cd-relax'
  tstress = .true.
  tprnfor = .true.
/
&SYSTEM
  ibrav = 2
  celldm(1) = 10.3404050887   
  nat = 2
  ntyp = 1
  ecutwfc = 50
  occupations = occupations = 'smearing', smearing='m-v', degauss=0.02, 
/
&ELECTRONS
  conv_thr = 1.0e-6
/
&IONS
ion_dynamics = 'bfgs',trust_radius_ini = 0.1 
/
&CELL
cell_dynamics='bfgs'
press=0.0
/
ATOMIC_SPECIES
  Si  28.0855  Si_ONCV_PBE_sr.upf
ATOMIC_POSITIONS crystal
  Si   0.00   0.00   0.00
  Si   0.25    0.25    0.25
K_POINTS automatic
12 12 12  0 0 0
