&CONTROL 
   calculation = 'scf'
   restart_mode = 'from_scratch' 
   prefix = 'SiNi' 
   tstress = .true. 
   tprnfor = .true. 
   pseudo_dir = './PSEUDO' 
   outdir = './tmp' 
&end 
&SYSTEM 
   ibrav = 1
   nat = 2 
   ntyp = 2 
   celldm(1) = 6
   ecutwfc = 20 
   occupations = 'smearing', smearing='mp', degauss=0.04,
   
&end 
&ELECTRONS 
   conv_thr =  1e-06  
&end 
ATOMIC_SPECIES 
   Si  28.0855    Si.upf 
   Ni  58.6934    Ni.upf 
ATOMIC_POSITIONS crystal 
   Si    0.0    0.0    0.0    
   Ni    0.5    0.5    0.5    
K_POINTS automatic 
8  8  8    0  0  0  
