&CONTROL
   calculation = 'scf'
   restart_mode = 'from_scratch'
   prefix = 'CaB3C3'
   tstress = .true.
   tprnfor = .true.
   pseudo_dir = './PSEUDO'
   outdir = './tmp'
&end
&SYSTEM
   ibrav = 1
   nat = 14
   ntyp = 3
   celldm(1) = 8.82540221891
   ecutwfc = 40
   occupations = 'smearing', smearing = 'mp', degauss = 0.04,
&end
&ELECTRONS
   conv_thr =  1e-05
   mixing_beta = 0.7
&end
ATOMIC_SPECIES
   Ca  40.078    Ca.upf
   B   10.811    B.upf
   C   12.011	 C.upf
ATOMIC_POSITIONS crystal
   Ca  0.   0.   0.
   Ca  0.5  0.5  0.5
   B   0.25 0.0  0.5
   B   0.75 0.0  0.5
   B   0.5  0.25 0.
   B   0.5  0.75 0.
   B   0.  0.5 0.25
   B   0.   0.5  0.75
   C   0.25 0.5  0.0
   C   0.75 0.5  0.0
   C   0.0  0.25 0.5
   C   0.0  0.75 0.5
   C   0.5  0.0  0.25
   C   0.5  0.0  0.75
K_POINTS automatic
2 2 2  0  0  0


