&CONTROL
  calculation = 'vc-relax'
  restart_mode = 'from_scratch'
  outdir = './tmp'
  pseudo_dir = './PSEUDO'
  prefix = 'si.dhcp-relax'
  tstress = .true.
  tprnfor = .true.
/
&SYSTEM
  ibrav = 4
  celldm(1) = 10.3404050887   
  celldm(3) = 1.5
  nat = 4
  ntyp = 1
  ecutwfc = 50
  occupations = occupations = 'smearing', smearing='m-v', degauss=0.02, 
/
&ELECTRONS
  conv_thr = 1.0e-6
/
&IONS
ion_dynamics = 'bfgs',trust_radius_ini = 0.1 
/
&CELL
cell_dynamics='bfgs'
press=0.0
/
ATOMIC_SPECIES
  Si  28.0855  Si_ONCV_PBE_sr.upf
ATOMIC_POSITIONS crystal
 Si 0.000000 0.000000 0.000000   
 Si 0.333333 0.666667 0.250000   
 Si 0.000000 0.000000 0.500000   
 Si 0.666667 0.333333 0.750000  
K_POINTS automatic
6 6 6  0 0 0
