&INPUTPP
prefix='MgB2'
plot_num=0
outdir='../tmp'
filplot='MgB2.2d.dat'
&end
&PLOT
iflag = 2,
! 2D planar plot
output_format = 7,
! Output format for 2D grid (gnuplot format)
fileout = 'MgB2.gnuplot', ! File to store the plane data
nx = 100, ny = 100,
! Grid points in x and y (adjust as needed)
e1(1) = 0, e1(2) = 5, e1(3) = 0, ! First vector (along [100])
e2(1) = 0.0, e2(2) = 0, e2(3) = 5, ! Second vector (orthogonal to [010)
x0(1) = 0, x0(2) = 0, x0(3) = 0



! Origin of the plane
/
&end
